30 4
44 57 55 13 42 26 48 25 96 49 33 67 13 27 33 68 96 88 85 31 52 27 10 13 29 20 55 58 33 98
18 56 18 48 27 61 82 75 47 59 49 56 71 60 51 53 20 12 48 97 55 24 85 95 39 34 49 18 48 51
84 62 27 46 28 98 17 37 55 86 51 49 65 61 95 61 62 92 50 38 63 66 99 33 83 89 21 56 71 45
40 38 75 96 10 25 96 51 96 80 61 14 30 95 47 75 94 71 75 72 54 73 53 69 43 52 93 89 83 27
